196850.17,23.56,25.8
202016.85,22.95,25.14
211891.18,21.89,23.97
205404.63,22.58,24.73
197992.19,23.42,25.65
191688.5,24.19,26.5
196416.93,23.61,25.86
200684.82,23.11,25.31
193322.86,23.99,26.27
211608.36,21.91,24.0
196903.37,23.55,25.8
195832.14,23.68,25.94
196348.08,23.62,25.87
196476.46,23.6,25.85
201788.73,22.98,25.17
203829.67,22.75,24.92
196424.19,23.61,25.86
201819.03,22.98,25.17
212623.0,21.81,23.89
198121.57,23.41,25.64
